NAME 
OBJSENSE MAX
ROWS
 N  OBJ
 L  packing[0]
 L  packing[1]
 L  packing[2]
 L  packing[3]
 L  packing[4]
 L  packing[5]
 L  packing[6]
 L  packing[7]
 L  packing[8]
 L  packing[9]
 L  packing[10]
 L  packing[11]
 L  packing[12]
 L  packing[13]
 L  packing[14]
 L  packing[15]
 L  packing[16]
 L  packing[17]
 L  packing[18]
 L  packing[19]
 L  packing[20]
 L  packing[21]
 L  packing[22]
 L  packing[23]
 L  packing[24]
 L  packing[25]
 L  packing[26]
 L  packing[27]
 L  packing[28]
 L  packing[29]
 L  packing[30]
 L  packing[31]
 L  packing[32]
 L  packing[33]
 L  packing[34]
 L  packing[35]
 L  packing[36]
 L  packing[37]
 L  packing[38]
 L  packing[39]
 L  packing[40]
 L  packing[41]
 L  packing[42]
 L  packing[43]
 L  packing[44]
 L  packing[45]
 L  packing[46]
 L  packing[47]
 L  packing[48]
 L  packing[49]
 L  R56     
COLUMNS
    MARKER    'MARKER'                 'INTORG'
    x[1]      OBJ       190
    x[1]      packing[0]  128
    x[1]      packing[1]  2
    x[1]      packing[4]  123
    x[1]      packing[5]  7
    x[1]      packing[6]  22
    x[1]      packing[7]  165
    x[1]      packing[8]  186
    x[1]      packing[9]  118
    x[1]      packing[10]  41
    x[1]      packing[11]  160
    x[1]      packing[13]  30
    x[1]      packing[15]  103
    x[1]      packing[16]  54
    x[1]      packing[19]  2
    x[1]      packing[22]  193
    x[1]      packing[23]  10
    x[1]      packing[24]  12
    x[1]      packing[25]  112
    x[1]      packing[27]  89
    x[1]      packing[28]  30
    x[1]      packing[29]  148
    x[1]      packing[30]  2
    x[1]      packing[32]  95
    x[1]      packing[33]  196
    x[1]      packing[34]  99
    x[1]      packing[35]  197
    x[1]      packing[36]  176
    x[1]      packing[37]  192
    x[1]      packing[38]  135
    x[1]      packing[39]  10
    x[1]      packing[40]  89
    x[1]      packing[41]  48
    x[1]      packing[42]  185
    x[1]      packing[44]  37
    x[1]      packing[45]  188
    x[1]      packing[46]  176
    x[1]      packing[49]  93
    x[1]      R56       1
    x[2]      OBJ       152
    x[2]      packing[0]  19
    x[2]      packing[1]  173
    x[2]      packing[2]  70
    x[2]      packing[3]  20
    x[2]      packing[4]  113
    x[2]      packing[5]  11
    x[2]      packing[6]  154
    x[2]      packing[7]  169
    x[2]      packing[8]  65
    x[2]      packing[9]  173
    x[2]      packing[10]  24
    x[2]      packing[11]  114
    x[2]      packing[12]  49
    x[2]      packing[14]  158
    x[2]      packing[15]  134
    x[2]      packing[16]  9
    x[2]      packing[17]  49
    x[2]      packing[18]  17
    x[2]      packing[19]  75
    x[2]      packing[20]  86
    x[2]      packing[21]  63
    x[2]      packing[22]  101
    x[2]      packing[23]  90
    x[2]      packing[24]  147
    x[2]      packing[25]  87
    x[2]      packing[26]  32
    x[2]      packing[27]  110
    x[2]      packing[29]  93
    x[2]      packing[30]  196
    x[2]      packing[33]  147
    x[2]      packing[34]  104
    x[2]      packing[35]  177
    x[2]      packing[36]  78
    x[2]      packing[37]  94
    x[2]      packing[39]  93
    x[2]      packing[40]  149
    x[2]      packing[41]  199
    x[2]      packing[42]  178
    x[2]      packing[43]  71
    x[2]      packing[44]  36
    x[2]      packing[45]  173
    x[2]      packing[46]  2
    x[2]      packing[47]  12
    x[2]      packing[48]  44
    x[2]      packing[49]  15
    x[3]      OBJ       162
    x[3]      packing[1]  194
    x[3]      packing[2]  24
    x[3]      packing[3]  17
    x[3]      packing[4]  144
    x[3]      packing[5]  132
    x[3]      packing[7]  137
    x[3]      packing[8]  170
    x[3]      packing[9]  134
    x[3]      packing[11]  182
    x[3]      packing[12]  92
    x[3]      packing[13]  176
    x[3]      packing[14]  76
    x[3]      packing[16]  132
    x[3]      packing[18]  171
    x[3]      packing[19]  195
    x[3]      packing[20]  181
    x[3]      packing[21]  12
    x[3]      packing[23]  57
    x[3]      packing[24]  42
    x[3]      packing[25]  117
    x[3]      packing[26]  127
    x[3]      packing[28]  30
    x[3]      packing[29]  39
    x[3]      packing[32]  116
    x[3]      packing[33]  172
    x[3]      packing[34]  188
    x[3]      packing[37]  186
    x[3]      packing[38]  7
    x[3]      packing[39]  174
    x[3]      packing[40]  61
    x[3]      packing[41]  119
    x[3]      packing[44]  47
    x[3]      packing[45]  49
    x[3]      packing[46]  117
    x[3]      packing[48]  194
    x[3]      packing[49]  5
    x[3]      R56       1
    x[4]      OBJ       109
    x[4]      packing[1]  117
    x[4]      packing[2]  152
    x[4]      packing[3]  164
    x[4]      packing[4]  104
    x[4]      packing[5]  120
    x[4]      packing[6]  127
    x[4]      packing[7]  178
    x[4]      packing[8]  156
    x[4]      packing[9]  41
    x[4]      packing[10]  109
    x[4]      packing[11]  80
    x[4]      packing[12]  77
    x[4]      packing[13]  123
    x[4]      packing[14]  19
    x[4]      packing[15]  11
    x[4]      packing[16]  68
    x[4]      packing[17]  105
    x[4]      packing[18]  38
    x[4]      packing[19]  7
    x[4]      packing[20]  4
    x[4]      packing[22]  101
    x[4]      packing[27]  132
    x[4]      packing[28]  13
    x[4]      packing[29]  97
    x[4]      packing[30]  170
    x[4]      packing[31]  187
    x[4]      packing[32]  183
    x[4]      packing[33]  150
    x[4]      packing[35]  81
    x[4]      packing[36]  89
    x[4]      packing[37]  141
    x[4]      packing[38]  91
    x[4]      packing[39]  141
    x[4]      packing[40]  66
    x[4]      packing[41]  21
    x[4]      packing[42]  7
    x[4]      packing[43]  13
    x[4]      packing[44]  158
    x[4]      packing[46]  16
    x[4]      packing[47]  19
    x[4]      packing[48]  132
    x[5]      OBJ       77
    x[5]      packing[1]  3
    x[5]      packing[3]  23
    x[5]      packing[4]  109
    x[5]      packing[5]  149
    x[5]      packing[6]  106
    x[5]      packing[7]  172
    x[5]      packing[8]  21
    x[5]      packing[9]  103
    x[5]      packing[10]  174
    x[5]      packing[11]  69
    x[5]      packing[13]  30
    x[5]      packing[14]  145
    x[5]      packing[18]  49
    x[5]      packing[21]  18
    x[5]      packing[22]  126
    x[5]      packing[23]  49
    x[5]      packing[24]  8
    x[5]      packing[25]  47
    x[5]      packing[26]  94
    x[5]      packing[28]  21
    x[5]      packing[30]  106
    x[5]      packing[31]  113
    x[5]      packing[32]  99
    x[5]      packing[33]  66
    x[5]      packing[35]  142
    x[5]      packing[36]  50
    x[5]      packing[37]  124
    x[5]      packing[38]  112
    x[5]      packing[39]  71
    x[5]      packing[40]  114
    x[5]      packing[41]  126
    x[5]      packing[42]  15
    x[5]      packing[43]  122
    x[5]      packing[46]  95
    x[5]      packing[47]  63
    x[5]      packing[48]  132
    x[5]      packing[49]  100
    x[6]      OBJ       2
    x[6]      packing[0]  122
    x[6]      packing[1]  176
    x[6]      packing[3]  21
    x[6]      packing[4]  83
    x[6]      packing[6]  141
    x[6]      packing[7]  181
    x[6]      packing[10]  72
    x[6]      packing[11]  57
    x[6]      packing[12]  59
    x[6]      packing[13]  68
    x[6]      packing[16]  88
    x[6]      packing[18]  28
    x[6]      packing[19]  107
    x[6]      packing[20]  162
    x[6]      packing[22]  13
    x[6]      packing[24]  11
    x[6]      packing[25]  189
    x[6]      packing[26]  79
    x[6]      packing[27]  184
    x[6]      packing[28]  98
    x[6]      packing[29]  137
    x[6]      packing[32]  37
    x[6]      packing[33]  89
    x[6]      packing[35]  40
    x[6]      packing[36]  164
    x[6]      packing[37]  45
    x[6]      packing[39]  124
    x[6]      packing[40]  61
    x[6]      packing[42]  134
    x[6]      packing[43]  118
    x[6]      packing[44]  103
    x[6]      packing[45]  154
    x[6]      packing[47]  89
    x[7]      OBJ       7
    x[7]      packing[1]  100
    x[7]      packing[2]  13
    x[7]      packing[3]  127
    x[7]      packing[4]  71
    x[7]      packing[5]  156
    x[7]      packing[7]  121
    x[7]      packing[8]  45
    x[7]      packing[9]  3
    x[7]      packing[11]  110
    x[7]      packing[13]  46
    x[7]      packing[14]  193
    x[7]      packing[15]  9
    x[7]      packing[17]  48
    x[7]      packing[18]  109
    x[7]      packing[19]  22
    x[7]      packing[20]  34
    x[7]      packing[21]  14
    x[7]      packing[22]  110
    x[7]      packing[23]  121
    x[7]      packing[24]  37
    x[7]      packing[27]  11
    x[7]      packing[28]  42
    x[7]      packing[29]  73
    x[7]      packing[30]  147
    x[7]      packing[31]  76
    x[7]      packing[32]  140
    x[7]      packing[33]  117
    x[7]      packing[34]  188
    x[7]      packing[35]  61
    x[7]      packing[36]  161
    x[7]      packing[37]  55
    x[7]      packing[38]  111
    x[7]      packing[39]  196
    x[7]      packing[40]  138
    x[7]      packing[41]  56
    x[7]      packing[43]  180
    x[7]      packing[44]  173
    x[7]      packing[45]  48
    x[7]      packing[47]  24
    x[7]      packing[48]  195
    x[7]      packing[49]  141
    x[8]      OBJ       133
    x[8]      packing[0]  18
    x[8]      packing[1]  23
    x[8]      packing[3]  144
    x[8]      packing[4]  70
    x[8]      packing[5]  139
    x[8]      packing[6]  138
    x[8]      packing[7]  150
    x[8]      packing[9]  48
    x[8]      packing[11]  116
    x[8]      packing[12]  196
    x[8]      packing[15]  136
    x[8]      packing[18]  173
    x[8]      packing[22]  184
    x[8]      packing[25]  51
    x[8]      packing[27]  78
    x[8]      packing[30]  171
    x[8]      packing[31]  184
    x[8]      packing[32]  23
    x[8]      packing[34]  133
    x[8]      packing[36]  62
    x[8]      packing[40]  100
    x[8]      packing[41]  99
    x[8]      packing[42]  29
    x[8]      packing[43]  22
    x[8]      packing[44]  47
    x[8]      packing[45]  173
    x[8]      packing[46]  78
    x[8]      packing[47]  16
    x[8]      packing[48]  177
    x[8]      R56       1
    x[9]      OBJ       131
    x[9]      packing[0]  61
    x[9]      packing[1]  151
    x[9]      packing[2]  79
    x[9]      packing[3]  165
    x[9]      packing[5]  114
    x[9]      packing[6]  154
    x[9]      packing[7]  32
    x[9]      packing[9]  116
    x[9]      packing[10]  161
    x[9]      packing[11]  163
    x[9]      packing[12]  26
    x[9]      packing[13]  63
    x[9]      packing[14]  35
    x[9]      packing[16]  181
    x[9]      packing[18]  46
    x[9]      packing[20]  95
    x[9]      packing[22]  146
    x[9]      packing[23]  39
    x[9]      packing[26]  50
    x[9]      packing[27]  177
    x[9]      packing[29]  176
    x[9]      packing[31]  4
    x[9]      packing[33]  189
    x[9]      packing[35]  166
    x[9]      packing[37]  14
    x[9]      packing[38]  127
    x[9]      packing[39]  28
    x[9]      packing[41]  94
    x[9]      packing[42]  72
    x[9]      packing[43]  169
    x[9]      packing[44]  123
    x[9]      packing[46]  163
    x[9]      packing[47]  36
    x[9]      packing[49]  21
    x[9]      R56       1
    x[10]     OBJ       147
    x[10]     packing[0]  46
    x[10]     packing[1]  143
    x[10]     packing[2]  135
    x[10]     packing[5]  48
    x[10]     packing[7]  45
    x[10]     packing[8]  187
    x[10]     packing[10]  153
    x[10]     packing[12]  46
    x[10]     packing[13]  140
    x[10]     packing[14]  105
    x[10]     packing[17]  196
    x[10]     packing[18]  78
    x[10]     packing[19]  48
    x[10]     packing[20]  67
    x[10]     packing[21]  132
    x[10]     packing[22]  42
    x[10]     packing[24]  125
    x[10]     packing[25]  190
    x[10]     packing[26]  181
    x[10]     packing[29]  198
    x[10]     packing[30]  11
    x[10]     packing[31]  57
    x[10]     packing[32]  141
    x[10]     packing[33]  145
    x[10]     packing[35]  143
    x[10]     packing[36]  191
    x[10]     packing[37]  192
    x[10]     packing[38]  121
    x[10]     packing[39]  168
    x[10]     packing[40]  198
    x[10]     packing[41]  63
    x[10]     packing[42]  23
    x[10]     packing[44]  89
    x[10]     packing[45]  93
    x[10]     packing[47]  22
    x[10]     packing[49]  28
    x[11]     OBJ       125
    x[11]     packing[0]  110
    x[11]     packing[1]  83
    x[11]     packing[2]  159
    x[11]     packing[3]  92
    x[11]     packing[4]  184
    x[11]     packing[8]  88
    x[11]     packing[9]  2
    x[11]     packing[10]  30
    x[11]     packing[11]  51
    x[11]     packing[12]  109
    x[11]     packing[17]  29
    x[11]     packing[20]  104
    x[11]     packing[21]  186
    x[11]     packing[22]  99
    x[11]     packing[24]  147
    x[11]     packing[25]  166
    x[11]     packing[26]  160
    x[11]     packing[27]  170
    x[11]     packing[28]  13
    x[11]     packing[29]  48
    x[11]     packing[30]  66
    x[11]     packing[31]  173
    x[11]     packing[33]  68
    x[11]     packing[34]  187
    x[11]     packing[35]  2
    x[11]     packing[36]  123
    x[11]     packing[37]  130
    x[11]     packing[40]  189
    x[11]     packing[42]  25
    x[11]     packing[44]  53
    x[11]     packing[47]  177
    x[11]     packing[48]  188
    x[11]     packing[49]  18
    x[12]     OBJ       14
    x[12]     packing[0]  184
    x[12]     packing[1]  42
    x[12]     packing[2]  15
    x[12]     packing[3]  132
    x[12]     packing[4]  149
    x[12]     packing[5]  21
    x[12]     packing[6]  138
    x[12]     packing[8]  168
    x[12]     packing[9]  45
    x[12]     packing[12]  108
    x[12]     packing[13]  166
    x[12]     packing[14]  138
    x[12]     packing[16]  96
    x[12]     packing[17]  101
    x[12]     packing[18]  114
    x[12]     packing[20]  90
    x[12]     packing[22]  93
    x[12]     packing[23]  163
    x[12]     packing[24]  77
    x[12]     packing[25]  34
    x[12]     packing[27]  179
    x[12]     packing[29]  164
    x[12]     packing[30]  63
    x[12]     packing[31]  59
    x[12]     packing[33]  53
    x[12]     packing[34]  189
    x[12]     packing[35]  150
    x[12]     packing[36]  43
    x[12]     packing[39]  188
    x[12]     packing[40]  190
    x[12]     packing[45]  87
    x[12]     packing[48]  165
    x[12]     packing[49]  70
    x[13]     OBJ       66
    x[13]     packing[0]  1
    x[13]     packing[3]  74
    x[13]     packing[5]  172
    x[13]     packing[6]  55
    x[13]     packing[7]  7
    x[13]     packing[8]  196
    x[13]     packing[10]  175
    x[13]     packing[11]  58
    x[13]     packing[14]  136
    x[13]     packing[15]  98
    x[13]     packing[17]  177
    x[13]     packing[18]  143
    x[13]     packing[19]  166
    x[13]     packing[20]  177
    x[13]     packing[21]  67
    x[13]     packing[23]  67
    x[13]     packing[25]  33
    x[13]     packing[26]  190
    x[13]     packing[27]  169
    x[13]     packing[29]  102
    x[13]     packing[30]  23
    x[13]     packing[31]  98
    x[13]     packing[34]  123
    x[13]     packing[36]  86
    x[13]     packing[38]  107
    x[13]     packing[40]  3
    x[13]     packing[41]  91
    x[13]     packing[43]  177
    x[13]     packing[45]  196
    x[13]     packing[47]  14
    x[13]     packing[48]  122
    x[14]     OBJ       104
    x[14]     packing[0]  108
    x[14]     packing[1]  144
    x[14]     packing[2]  138
    x[14]     packing[4]  113
    x[14]     packing[5]  8
    x[14]     packing[7]  137
    x[14]     packing[9]  60
    x[14]     packing[10]  26
    x[14]     packing[11]  70
    x[14]     packing[12]  35
    x[14]     packing[13]  198
    x[14]     packing[14]  132
    x[14]     packing[15]  45
    x[14]     packing[16]  187
    x[14]     packing[18]  129
    x[14]     packing[20]  143
    x[14]     packing[23]  2
    x[14]     packing[24]  69
    x[14]     packing[25]  65
    x[14]     packing[26]  126
    x[14]     packing[27]  81
    x[14]     packing[28]  107
    x[14]     packing[30]  148
    x[14]     packing[32]  91
    x[14]     packing[33]  93
    x[14]     packing[34]  171
    x[14]     packing[35]  90
    x[14]     packing[36]  51
    x[14]     packing[37]  4
    x[14]     packing[38]  126
    x[14]     packing[40]  162
    x[14]     packing[42]  90
    x[14]     packing[43]  40
    x[14]     packing[45]  140
    x[14]     packing[47]  117
    x[14]     packing[48]  31
    x[14]     packing[49]  30
    x[15]     OBJ       3
    x[15]     packing[0]  183
    x[15]     packing[1]  94
    x[15]     packing[3]  94
    x[15]     packing[4]  159
    x[15]     packing[5]  61
    x[15]     packing[6]  61
    x[15]     packing[7]  62
    x[15]     packing[9]  130
    x[15]     packing[10]  125
    x[15]     packing[11]  199
    x[15]     packing[13]  29
    x[15]     packing[14]  9
    x[15]     packing[15]  23
    x[15]     packing[16]  180
    x[15]     packing[17]  85
    x[15]     packing[18]  93
    x[15]     packing[20]  115
    x[15]     packing[21]  187
    x[15]     packing[22]  167
    x[15]     packing[24]  180
    x[15]     packing[25]  11
    x[15]     packing[26]  123
    x[15]     packing[27]  66
    x[15]     packing[28]  114
    x[15]     packing[29]  190
    x[15]     packing[30]  86
    x[15]     packing[31]  170
    x[15]     packing[32]  144
    x[15]     packing[33]  92
    x[15]     packing[34]  81
    x[15]     packing[35]  183
    x[15]     packing[36]  46
    x[15]     packing[37]  152
    x[15]     packing[38]  86
    x[15]     packing[39]  123
    x[15]     packing[40]  131
    x[15]     packing[43]  132
    x[15]     packing[45]  91
    x[15]     packing[46]  148
    x[15]     packing[47]  121
    x[15]     packing[48]  44
    x[15]     packing[49]  38
    x[16]     OBJ       45
    x[16]     packing[1]  165
    x[16]     packing[3]  105
    x[16]     packing[4]  26
    x[16]     packing[5]  13
    x[16]     packing[6]  138
    x[16]     packing[8]  13
    x[16]     packing[9]  193
    x[16]     packing[10]  150
    x[16]     packing[11]  123
    x[16]     packing[12]  27
    x[16]     packing[13]  59
    x[16]     packing[15]  160
    x[16]     packing[16]  155
    x[16]     packing[17]  15
    x[16]     packing[18]  65
    x[16]     packing[19]  52
    x[16]     packing[20]  167
    x[16]     packing[21]  61
    x[16]     packing[22]  37
    x[16]     packing[24]  148
    x[16]     packing[25]  19
    x[16]     packing[26]  198
    x[16]     packing[27]  93
    x[16]     packing[29]  170
    x[16]     packing[30]  141
    x[16]     packing[31]  42
    x[16]     packing[32]  105
    x[16]     packing[33]  178
    x[16]     packing[34]  193
    x[16]     packing[36]  123
    x[16]     packing[37]  129
    x[16]     packing[38]  66
    x[16]     packing[40]  148
    x[16]     packing[42]  190
    x[16]     packing[44]  3
    x[16]     packing[45]  35
    x[16]     packing[46]  182
    x[16]     packing[47]  127
    x[16]     packing[48]  148
    x[16]     packing[49]  131
    x[17]     OBJ       16
    x[17]     packing[0]  41
    x[17]     packing[1]  162
    x[17]     packing[3]  14
    x[17]     packing[4]  172
    x[17]     packing[5]  39
    x[17]     packing[6]  192
    x[17]     packing[7]  127
    x[17]     packing[8]  88
    x[17]     packing[9]  76
    x[17]     packing[10]  137
    x[17]     packing[11]  183
    x[17]     packing[12]  97
    x[17]     packing[14]  39
    x[17]     packing[15]  187
    x[17]     packing[16]  125
    x[17]     packing[19]  173
    x[17]     packing[20]  111
    x[17]     packing[22]  100
    x[17]     packing[23]  154
    x[17]     packing[24]  75
    x[17]     packing[25]  7
    x[17]     packing[26]  68
    x[17]     packing[27]  50
    x[17]     packing[28]  63
    x[17]     packing[29]  187
    x[17]     packing[30]  100
    x[17]     packing[31]  93
    x[17]     packing[33]  21
    x[17]     packing[34]  133
    x[17]     packing[36]  141
    x[17]     packing[37]  90
    x[17]     packing[38]  32
    x[17]     packing[39]  19
    x[17]     packing[40]  66
    x[17]     packing[41]  169
    x[17]     packing[42]  117
    x[17]     packing[43]  122
    x[17]     packing[44]  91
    x[17]     packing[46]  142
    x[17]     packing[47]  48
    x[17]     packing[49]  62
    x[18]     OBJ       39
    x[18]     packing[0]  128
    x[18]     packing[1]  174
    x[18]     packing[4]  185
    x[18]     packing[5]  54
    x[18]     packing[6]  7
    x[18]     packing[7]  126
    x[18]     packing[8]  82
    x[18]     packing[10]  30
    x[18]     packing[11]  69
    x[18]     packing[12]  58
    x[18]     packing[14]  3
    x[18]     packing[16]  184
    x[18]     packing[17]  155
    x[18]     packing[18]  120
    x[18]     packing[19]  143
    x[18]     packing[20]  168
    x[18]     packing[21]  73
    x[18]     packing[22]  147
    x[18]     packing[23]  87
    x[18]     packing[24]  183
    x[18]     packing[25]  145
    x[18]     packing[26]  183
    x[18]     packing[27]  134
    x[18]     packing[29]  61
    x[18]     packing[30]  181
    x[18]     packing[32]  181
    x[18]     packing[35]  89
    x[18]     packing[36]  1
    x[18]     packing[37]  10
    x[18]     packing[38]  185
    x[18]     packing[39]  83
    x[18]     packing[40]  178
    x[18]     packing[41]  85
    x[18]     packing[42]  74
    x[18]     packing[44]  138
    x[18]     packing[45]  10
    x[18]     packing[46]  37
    x[18]     packing[47]  170
    x[18]     packing[48]  193
    x[19]     OBJ       176
    x[19]     packing[1]  95
    x[19]     packing[3]  156
    x[19]     packing[4]  156
    x[19]     packing[5]  58
    x[19]     packing[6]  89
    x[19]     packing[9]  140
    x[19]     packing[10]  117
    x[19]     packing[11]  15
    x[19]     packing[12]  147
    x[19]     packing[13]  119
    x[19]     packing[14]  119
    x[19]     packing[15]  156
    x[19]     packing[16]  115
    x[19]     packing[22]  145
    x[19]     packing[23]  47
    x[19]     packing[24]  9
    x[19]     packing[25]  125
    x[19]     packing[26]  179
    x[19]     packing[27]  165
    x[19]     packing[29]  186
    x[19]     packing[30]  154
    x[19]     packing[32]  55
    x[19]     packing[34]  26
    x[19]     packing[35]  84
    x[19]     packing[37]  96
    x[19]     packing[38]  111
    x[19]     packing[39]  130
    x[19]     packing[40]  44
    x[19]     packing[41]  25
    x[19]     packing[44]  103
    x[19]     packing[45]  139
    x[19]     packing[47]  16
    x[20]     OBJ       45
    x[20]     packing[0]  193
    x[20]     packing[1]  22
    x[20]     packing[2]  35
    x[20]     packing[4]  174
    x[20]     packing[5]  66
    x[20]     packing[7]  109
    x[20]     packing[13]  25
    x[20]     packing[14]  178
    x[20]     packing[15]  8
    x[20]     packing[17]  141
    x[20]     packing[18]  23
    x[20]     packing[21]  5
    x[20]     packing[23]  70
    x[20]     packing[24]  170
    x[20]     packing[26]  123
    x[20]     packing[27]  121
    x[20]     packing[28]  116
    x[20]     packing[29]  88
    x[20]     packing[30]  162
    x[20]     packing[31]  37
    x[20]     packing[32]  12
    x[20]     packing[33]  95
    x[20]     packing[35]  133
    x[20]     packing[36]  81
    x[20]     packing[37]  141
    x[20]     packing[38]  122
    x[20]     packing[39]  128
    x[20]     packing[40]  130
    x[20]     packing[41]  184
    x[20]     packing[42]  81
    x[20]     packing[46]  130
    x[20]     packing[47]  42
    x[20]     packing[48]  24
    x[20]     packing[49]  107
    x[20]     R56       1
    MARKER    'MARKER'                 'INTEND'
RHS
    RHS1      packing[0]  671
    RHS1      packing[1]  1032
    RHS1      packing[2]  410
    RHS1      packing[3]  674
    RHS1      packing[4]  1068
    RHS1      packing[5]  684
    RHS1      packing[6]  761
    RHS1      packing[7]  959
    RHS1      packing[8]  733
    RHS1      packing[9]  691
    RHS1      packing[10]  762
    RHS1      packing[11]  910
    RHS1      packing[12]  563
    RHS1      packing[13]  636
    RHS1      packing[14]  743
    RHS1      packing[15]  535
    RHS1      packing[16]  787
    RHS1      packing[17]  551
    RHS1      packing[18]  698
    RHS1      packing[19]  495
    RHS1      packing[20]  852
    RHS1      packing[21]  409
    RHS1      packing[22]  902
    RHS1      packing[23]  478
    RHS1      packing[24]  720
    RHS1      packing[25]  699
    RHS1      packing[26]  957
    RHS1      packing[27]  1005
    RHS1      packing[28]  324
    RHS1      packing[29]  1079
    RHS1      packing[30]  964
    RHS1      packing[31]  647
    RHS1      packing[32]  711
    RHS1      packing[33]  936
    RHS1      packing[34]  908
    RHS1      packing[35]  869
    RHS1      packing[36]  833
    RHS1      packing[37]  898
    RHS1      packing[38]  770
    RHS1      packing[39]  838
    RHS1      packing[40]  1109
    RHS1      packing[41]  690
    RHS1      packing[42]  610
    RHS1      packing[43]  583
    RHS1      packing[44]  601
    RHS1      packing[45]  788
    RHS1      packing[46]  643
    RHS1      packing[47]  557
    RHS1      packing[48]  895
    RHS1      packing[49]  430
    RHS1      R56       4
BOUNDS
 BV BND1      x[1]    
 BV BND1      x[2]    
 BV BND1      x[3]    
 BV BND1      x[4]    
 BV BND1      x[5]    
 BV BND1      x[6]    
 BV BND1      x[7]    
 BV BND1      x[8]    
 BV BND1      x[9]    
 BV BND1      x[10]   
 BV BND1      x[11]   
 BV BND1      x[12]   
 BV BND1      x[13]   
 BV BND1      x[14]   
 BV BND1      x[15]   
 BV BND1      x[16]   
 BV BND1      x[17]   
 BV BND1      x[18]   
 BV BND1      x[19]   
 BV BND1      x[20]   
ENDATA
